;; ===================== PROJECTED CANON (QE) =====================
;; Each clause below is entailed by Proj = ∃W.F over the canonical vocabulary.
;; Units appear first for clarity; OR-clauses (SAT-filtered) follow.
;; ==================================================================

;; Unit Bool constraints (entailed)
(assert (not patient_has_finding_of_at_risk_of_variant_creutzfeldt_jakob_disease_now))
(assert (not patient_has_finding_of_human_immunodeficiency_virus_i_infection_now))
(assert (not patient_has_finding_of_human_immunodeficiency_virus_ii_infection_now))
(assert (not patient_has_finding_of_human_t_lymphotropic_virus_1_infection_now))
(assert (not patient_has_finding_of_human_t_lymphotropic_virus_2_infection_now))
(assert (not patient_has_finding_of_prion_disease_now))
(assert (not patient_has_finding_of_syphilis_now))
(assert (not patient_has_finding_of_type_b_viral_hepatitis_now))
(assert (not patient_has_finding_of_viral_hepatitis_c_now))
(assert (not patient_has_finding_of_cytomegalovirus_infection_now))
(assert (not patient_has_finding_of_disease_due_to_west_nile_virus_now))
(assert (not patient_has_diagnosis_of_malignant_neoplastic_disease_inthehistory))
(assert (not patient_is_pregnant_now))
